(set-info :source |printed by MathSAT|)
(declare-fun |main::local_14@2| () (_ BitVec 32))
(declare-fun |id::x__param__@2| () (_ BitVec 32))
(declare-fun |id::x@2| () (_ BitVec 32))
(declare-fun |id::x__param__@3| () (_ BitVec 32))
(declare-fun |id::__retval__@2| () (_ BitVec 32))
(declare-fun |id::__retval__@3| () (_ BitVec 32))
(declare-fun |id::__retval__@4| () (_ BitVec 32))
(declare-fun |id::__retval__@5| () (_ BitVec 32))
(declare-fun |id::__retval__@6| () (_ BitVec 32))
(declare-fun |id::__retval__@7| () (_ BitVec 32))
(declare-fun |id::__retval__@8| () (_ BitVec 32))
(declare-fun |id::__retval__@9| () (_ BitVec 32))
(declare-fun |id::__retval__@10| () (_ BitVec 32))
(declare-fun |id::__retval__@11| () (_ BitVec 32))
(declare-fun |id::__retval__@12| () (_ BitVec 32))
(declare-fun |id::x@3| () (_ BitVec 32))
(declare-fun |id::x__param__@4| () (_ BitVec 32))
(declare-fun |id::x@4| () (_ BitVec 32))
(declare-fun |id::x__param__@5| () (_ BitVec 32))
(declare-fun |id::x@5| () (_ BitVec 32))
(declare-fun |id::x__param__@6| () (_ BitVec 32))
(declare-fun |id::x@6| () (_ BitVec 32))
(declare-fun |id::x__param__@7| () (_ BitVec 32))
(declare-fun |id::x@7| () (_ BitVec 32))
(declare-fun |id::x__param__@8| () (_ BitVec 32))
(declare-fun |id::x@8| () (_ BitVec 32))
(declare-fun |id::x__param__@9| () (_ BitVec 32))
(declare-fun |id::x@9| () (_ BitVec 32))
(declare-fun |id::x__param__@10| () (_ BitVec 32))
(declare-fun |id::x@10| () (_ BitVec 32))
(declare-fun |id::x__param__@11| () (_ BitVec 32))
(declare-fun |id::x@11| () (_ BitVec 32))
(declare-fun |id::x__param__@12| () (_ BitVec 32))
(declare-fun |id::x@12| () (_ BitVec 32))
(declare-fun |id::uVar1@13| () (_ BitVec 32))
(declare-fun |id::uVar1@15| () (_ BitVec 32))
(declare-fun |id::uVar1@16| () (_ BitVec 32))
(declare-fun |id::uVar1@18| () (_ BitVec 32))
(declare-fun |id::uVar1@19| () (_ BitVec 32))
(declare-fun |id::uVar1@21| () (_ BitVec 32))
(declare-fun |id::uVar1@22| () (_ BitVec 32))
(declare-fun |id::uVar1@24| () (_ BitVec 32))
(declare-fun |id::uVar1@25| () (_ BitVec 32))
(declare-fun |id::uVar1@27| () (_ BitVec 32))
(declare-fun |id::uVar1@28| () (_ BitVec 32))
(declare-fun |id::uVar1@30| () (_ BitVec 32))
(declare-fun |id::uVar1@31| () (_ BitVec 32))
(declare-fun |id::uVar1@33| () (_ BitVec 32))
(declare-fun |id::uVar1@34| () (_ BitVec 32))
(declare-fun |id::uVar1@36| () (_ BitVec 32))
(declare-fun |id::uVar1@37| () (_ BitVec 32))
(declare-fun |id::uVar1@39| () (_ BitVec 32))
(declare-fun |id::uVar1@40| () (_ BitVec 32))
(declare-fun |id::uVar1@42| () (_ BitVec 32))
(declare-fun |id::uVar1@43| () (_ BitVec 32))
(declare-fun |main::uVar1@14| () (_ BitVec 32))
(assert (let ((.def_14 (= |id::x__param__@2| |id::x@2|)))(let ((.def_12 (= |main::local_14@2| |id::x__param__@2|)))(let ((.def_320 (and .def_12 .def_14)))(let ((.def_15 (= |id::x@2| (_ bv0 32))))(let ((.def_19 (not .def_15)))(let ((.def_321 (and .def_19 .def_320)))(let ((.def_24 (bvadd (_ bv4294967295 32) |id::x@2|)))(let ((.def_26 (= .def_24 |id::x__param__@3|)))(let ((.def_322 (and .def_26 .def_321)))(let ((.def_121 (= |id::x__param__@3| |id::x@3|)))(let ((.def_323 (and .def_121 .def_322)))(let ((.def_122 (= |id::x@3| (_ bv0 32))))(let ((.def_124 (not .def_122)))(let ((.def_324 (and .def_124 .def_323)))(let ((.def_128 (bvadd (_ bv4294967295 32) |id::x@3|)))(let ((.def_130 (= .def_128 |id::x__param__@4|)))(let ((.def_325 (and .def_130 .def_324)))(let ((.def_132 (= |id::x__param__@4| |id::x@4|)))(let ((.def_326 (and .def_132 .def_325)))(let ((.def_133 (= |id::x@4| (_ bv0 32))))(let ((.def_135 (not .def_133)))(let ((.def_327 (and .def_135 .def_326)))(let ((.def_139 (bvadd (_ bv4294967295 32) |id::x@4|)))(let ((.def_141 (= .def_139 |id::x__param__@5|)))(let ((.def_328 (and .def_141 .def_327)))(let ((.def_143 (= |id::x__param__@5| |id::x@5|)))(let ((.def_329 (and .def_143 .def_328)))(let ((.def_144 (= |id::x@5| (_ bv0 32))))(let ((.def_146 (not .def_144)))(let ((.def_330 (and .def_146 .def_329)))(let ((.def_150 (bvadd (_ bv4294967295 32) |id::x@5|)))(let ((.def_152 (= .def_150 |id::x__param__@6|)))(let ((.def_331 (and .def_152 .def_330)))(let ((.def_154 (= |id::x__param__@6| |id::x@6|)))(let ((.def_332 (and .def_154 .def_331)))(let ((.def_155 (= |id::x@6| (_ bv0 32))))(let ((.def_157 (not .def_155)))(let ((.def_333 (and .def_157 .def_332)))(let ((.def_161 (bvadd (_ bv4294967295 32) |id::x@6|)))(let ((.def_163 (= .def_161 |id::x__param__@7|)))(let ((.def_334 (and .def_163 .def_333)))(let ((.def_165 (= |id::x__param__@7| |id::x@7|)))(let ((.def_335 (and .def_165 .def_334)))(let ((.def_166 (= |id::x@7| (_ bv0 32))))(let ((.def_168 (not .def_166)))(let ((.def_336 (and .def_168 .def_335)))(let ((.def_172 (bvadd (_ bv4294967295 32) |id::x@7|)))(let ((.def_174 (= .def_172 |id::x__param__@8|)))(let ((.def_337 (and .def_174 .def_336)))(let ((.def_176 (= |id::x__param__@8| |id::x@8|)))(let ((.def_338 (and .def_176 .def_337)))(let ((.def_177 (= |id::x@8| (_ bv0 32))))(let ((.def_179 (not .def_177)))(let ((.def_339 (and .def_179 .def_338)))(let ((.def_183 (bvadd (_ bv4294967295 32) |id::x@8|)))(let ((.def_185 (= .def_183 |id::x__param__@9|)))(let ((.def_340 (and .def_185 .def_339)))(let ((.def_187 (= |id::x__param__@9| |id::x@9|)))(let ((.def_341 (and .def_187 .def_340)))(let ((.def_188 (= |id::x@9| (_ bv0 32))))(let ((.def_190 (not .def_188)))(let ((.def_342 (and .def_190 .def_341)))(let ((.def_194 (bvadd (_ bv4294967295 32) |id::x@9|)))(let ((.def_196 (= .def_194 |id::x__param__@10|)))(let ((.def_343 (and .def_196 .def_342)))(let ((.def_198 (= |id::x__param__@10| |id::x@10|)))(let ((.def_344 (and .def_198 .def_343)))(let ((.def_199 (= |id::x@10| (_ bv0 32))))(let ((.def_201 (not .def_199)))(let ((.def_345 (and .def_201 .def_344)))(let ((.def_205 (bvadd (_ bv4294967295 32) |id::x@10|)))(let ((.def_207 (= .def_205 |id::x__param__@11|)))(let ((.def_346 (and .def_207 .def_345)))(let ((.def_209 (= |id::x__param__@11| |id::x@11|)))(let ((.def_347 (and .def_209 .def_346)))(let ((.def_210 (= |id::x@11| (_ bv0 32))))(let ((.def_212 (not .def_210)))(let ((.def_348 (and .def_212 .def_347)))(let ((.def_216 (bvadd (_ bv4294967295 32) |id::x@11|)))(let ((.def_218 (= .def_216 |id::x__param__@12|)))(let ((.def_349 (and .def_218 .def_348)))(let ((.def_220 (= |id::x__param__@12| |id::x@12|)))(let ((.def_350 (and .def_220 .def_349)))(let ((.def_221 (= |id::x@12| (_ bv0 32))))(let ((.def_351 (and .def_221 .def_350)))(let ((.def_225 (= |id::uVar1@13| (_ bv0 32))))(let ((.def_352 (and .def_225 .def_351)))(let ((.def_227 (= |id::__retval__@2| |id::uVar1@13|)))(let ((.def_353 (and .def_227 .def_352)))(let ((.def_230 (= |id::__retval__@2| |id::uVar1@15|)))(let ((.def_354 (and .def_230 .def_353)))(let ((.def_232 (bvadd (_ bv1 32) |id::uVar1@15|)))(let ((.def_234 (= .def_232 |id::uVar1@16|)))(let ((.def_355 (and .def_234 .def_354)))(let ((.def_235 (= |id::__retval__@3| |id::uVar1@16|)))(let ((.def_356 (and .def_235 .def_355)))(let ((.def_238 (= |id::__retval__@3| |id::uVar1@18|)))(let ((.def_357 (and .def_238 .def_356)))(let ((.def_240 (bvadd (_ bv1 32) |id::uVar1@18|)))(let ((.def_242 (= .def_240 |id::uVar1@19|)))(let ((.def_358 (and .def_242 .def_357)))(let ((.def_243 (= |id::__retval__@4| |id::uVar1@19|)))(let ((.def_359 (and .def_243 .def_358)))(let ((.def_246 (= |id::__retval__@4| |id::uVar1@21|)))(let ((.def_360 (and .def_246 .def_359)))(let ((.def_248 (bvadd (_ bv1 32) |id::uVar1@21|)))(let ((.def_250 (= .def_248 |id::uVar1@22|)))(let ((.def_361 (and .def_250 .def_360)))(let ((.def_251 (= |id::__retval__@5| |id::uVar1@22|)))(let ((.def_362 (and .def_251 .def_361)))(let ((.def_254 (= |id::__retval__@5| |id::uVar1@24|)))(let ((.def_363 (and .def_254 .def_362)))(let ((.def_256 (bvadd (_ bv1 32) |id::uVar1@24|)))(let ((.def_258 (= .def_256 |id::uVar1@25|)))(let ((.def_364 (and .def_258 .def_363)))(let ((.def_259 (= |id::__retval__@6| |id::uVar1@25|)))(let ((.def_365 (and .def_259 .def_364)))(let ((.def_262 (= |id::__retval__@6| |id::uVar1@27|)))(let ((.def_366 (and .def_262 .def_365)))(let ((.def_264 (bvadd (_ bv1 32) |id::uVar1@27|)))(let ((.def_266 (= .def_264 |id::uVar1@28|)))(let ((.def_367 (and .def_266 .def_366)))(let ((.def_267 (= |id::__retval__@7| |id::uVar1@28|)))(let ((.def_368 (and .def_267 .def_367)))(let ((.def_270 (= |id::__retval__@7| |id::uVar1@30|)))(let ((.def_369 (and .def_270 .def_368)))(let ((.def_272 (bvadd (_ bv1 32) |id::uVar1@30|)))(let ((.def_274 (= .def_272 |id::uVar1@31|)))(let ((.def_370 (and .def_274 .def_369)))(let ((.def_275 (= |id::__retval__@8| |id::uVar1@31|)))(let ((.def_371 (and .def_275 .def_370)))(let ((.def_278 (= |id::__retval__@8| |id::uVar1@33|)))(let ((.def_372 (and .def_278 .def_371)))(let ((.def_280 (bvadd (_ bv1 32) |id::uVar1@33|)))(let ((.def_282 (= .def_280 |id::uVar1@34|)))(let ((.def_373 (and .def_282 .def_372)))(let ((.def_283 (= |id::__retval__@9| |id::uVar1@34|)))(let ((.def_374 (and .def_283 .def_373)))(let ((.def_286 (= |id::__retval__@9| |id::uVar1@36|)))(let ((.def_375 (and .def_286 .def_374)))(let ((.def_288 (bvadd (_ bv1 32) |id::uVar1@36|)))(let ((.def_290 (= .def_288 |id::uVar1@37|)))(let ((.def_376 (and .def_290 .def_375)))(let ((.def_291 (= |id::__retval__@10| |id::uVar1@37|)))(let ((.def_377 (and .def_291 .def_376)))(let ((.def_294 (= |id::__retval__@10| |id::uVar1@39|)))(let ((.def_378 (and .def_294 .def_377)))(let ((.def_296 (bvadd (_ bv1 32) |id::uVar1@39|)))(let ((.def_298 (= .def_296 |id::uVar1@40|)))(let ((.def_379 (and .def_298 .def_378)))(let ((.def_299 (= |id::__retval__@11| |id::uVar1@40|)))(let ((.def_380 (and .def_299 .def_379)))(let ((.def_302 (= |id::__retval__@11| |id::uVar1@42|)))(let ((.def_381 (and .def_302 .def_380)))(let ((.def_304 (bvadd (_ bv1 32) |id::uVar1@42|)))(let ((.def_306 (= .def_304 |id::uVar1@43|)))(let ((.def_382 (and .def_306 .def_381)))(let ((.def_307 (= |id::__retval__@12| |id::uVar1@43|)))(let ((.def_383 (and .def_307 .def_382)))(let ((.def_310 (= |id::__retval__@12| |main::uVar1@14|)))(let ((.def_384 (and .def_310 .def_383)))(let ((.def_311 (= |main::uVar1@14| (_ bv10 32))))(let ((.def_385 (and .def_311 .def_384))).def_385))))))))))))))))))))))))))))))))))))))))))))))))))))))))))))))))))))))))))))))))))))))))))))))))))))))))))))))))))))))))))))))))))))))))))))))))))))))))))))))))))))